65
1 0 11
2 0 37
2 1 8
3 0 15
3 1 20
3 2 40
4 0 60
4 1 9
4 2 61
4 3 54
5 0 21
5 1 34
5 2 46
5 3 9
5 4 21
6 0 5
6 1 43
6 2 41
6 3 18
6 4 35
6 5 41
7 0 47
7 1 50
7 2 62
7 3 12
7 4 2
7 5 36
7 6 2
8 0 60
8 1 35
8 2 55
8 3 42
8 4 29
8 5 6
8 6 30
8 7 13
9 0 4
9 1 25
9 2 31
9 3 54
9 4 61
9 5 14
9 6 31
9 7 33
9 8 33
10 0 39
10 1 46
10 2 34
10 3 47
10 4 25
10 5 33
10 6 33
10 7 34
10 8 11
10 9 48
11 0 39
11 1 26
11 2 10
11 3 31
11 4 39
11 5 54
11 6 37
11 7 61
11 8 54
11 9 61
11 10 45
12 0 25
12 1 4
12 2 29
12 3 24
12 4 22
12 5 7
12 6 39
12 7 52
12 8 50
12 9 48
12 10 38
12 11 25
13 0 6
13 1 45
13 2 10
13 3 48
13 4 1
13 5 25
13 6 46
13 7 33
13 8 24
13 9 32
13 10 31
13 11 52
13 12 23
14 0 15
14 1 47
14 2 23
14 3 32
14 4 38
14 5 50
14 6 17
14 7 24
14 8 19
14 9 8
14 10 17
14 11 4
14 12 3
14 13 41
15 0 39
15 1 5
15 2 21
15 3 17
15 4 18
15 5 28
15 6 12
15 7 57
15 8 27
15 9 57
15 10 1
15 11 58
15 12 34
15 13 34
15 14 55
16 0 35
16 1 24
16 2 12
16 3 57
16 4 46
16 5 36
16 6 47
16 7 26
16 8 18
16 9 51
16 10 58
16 11 55
16 12 48
16 13 57
16 14 3
16 15 17
17 0 1
17 1 51
17 2 8
17 3 2
17 4 21
17 5 51
17 6 23
17 7 44
17 8 6
17 9 24
17 10 38
17 11 11
17 12 45
17 13 12
17 14 17
17 15 60
17 16 45
18 0 27
18 1 18
18 2 59
18 3 10
18 4 34
18 5 44
18 6 33
18 7 40
18 8 49
18 9 59
18 10 13
18 11 45
18 12 21
18 13 4
18 14 54
18 15 20
18 16 59
18 17 24
19 0 22
19 1 38
19 2 12
19 3 30
19 4 14
19 5 26
19 6 59
19 7 12
19 8 42
19 9 7
19 10 36
19 11 16
19 12 59
19 13 31
19 14 59
19 15 51
19 16 51
19 17 11
19 18 22
20 0 43
20 1 58
20 2 24
20 3 56
20 4 21
20 5 14
20 6 33
20 7 49
20 8 52
20 9 26
20 10 28
20 11 56
20 12 25
20 13 35
20 14 27
20 15 21
20 16 56
20 17 1
20 18 39
20 19 49
21 0 61
21 1 21
21 2 2
21 3 6
21 4 23
21 5 6
21 6 31
21 7 17
21 8 19
21 9 21
21 10 15
21 11 52
21 12 50
21 13 26
21 14 60
21 15 17
21 16 29
21 17 23
21 18 25
21 19 48
21 20 34
22 0 5
22 1 3
22 2 61
22 3 20
22 4 45
22 5 17
22 6 61
22 7 55
22 8 38
22 9 11
22 10 61
22 11 6
22 12 62
22 13 53
22 14 24
22 15 11
22 16 41
22 17 48
22 18 7
22 19 13
22 20 37
22 21 42
23 0 36
23 1 33
23 2 34
23 3 12
23 4 27
23 5 50
23 6 42
23 7 49
23 8 7
23 9 19
23 10 32
23 11 1
23 12 53
23 13 32
23 14 47
23 15 11
23 16 38
23 17 16
23 18 57
23 19 43
23 20 1
23 21 59
23 22 38
24 0 62
24 1 26
24 2 33
24 3 1
24 4 30
24 5 41
24 6 26
24 7 1
24 8 11
24 9 62
24 10 14
24 11 47
24 12 54
24 13 22
24 14 23
24 15 47
24 16 57
24 17 56
24 18 48
24 19 2
24 20 9
24 21 43
24 22 2
24 23 23
25 0 23
25 1 35
25 2 1
25 3 9
25 4 31
25 5 51
25 6 48
25 7 15
25 8 22
25 9 29
25 10 3
25 11 41
25 12 24
25 13 33
25 14 49
25 15 27
25 16 21
25 17 21
25 18 40
25 19 21
25 20 16
25 21 28
25 22 17
25 23 54
25 24 17
26 0 39
26 1 41
26 2 35
26 3 33
26 4 6
26 5 10
26 6 13
26 7 44
26 8 62
26 9 52
26 10 58
26 11 12
26 12 54
26 13 14
26 14 5
26 15 57
26 16 12
26 17 39
26 18 14
26 19 23
26 20 52
26 21 41
26 22 2
26 23 13
26 24 44
26 25 32
27 0 31
27 1 38
27 2 42
27 3 18
27 4 57
27 5 12
27 6 7
27 7 16
27 8 44
27 9 12
27 10 12
27 11 60
27 12 51
27 13 18
27 14 1
27 15 38
27 16 20
27 17 5
27 18 4
27 19 50
27 20 31
27 21 15
27 22 39
27 23 4
27 24 32
27 25 58
27 26 15
28 0 28
28 1 30
28 2 50
28 3 10
28 4 1
28 5 25
28 6 46
28 7 32
28 8 20
28 9 31
28 10 23
28 11 38
28 12 58
28 13 47
28 14 35
28 15 41
28 16 51
28 17 43
28 18 60
28 19 36
28 20 59
28 21 50
28 22 53
28 23 58
28 24 29
28 25 5
28 26 3
28 27 16
29 0 30
29 1 35
29 2 51
29 3 58
29 4 7
29 5 53
29 6 39
29 7 39
29 8 22
29 9 9
29 10 34
29 11 60
29 12 61
29 13 58
29 14 23
29 15 53
29 16 45
29 17 45
29 18 3
29 19 47
29 20 55
29 21 19
29 22 50
29 23 39
29 24 46
29 25 24
29 26 60
29 27 33
29 28 8
30 0 41
30 1 39
30 2 1
30 3 58
30 4 39
30 5 28
30 6 44
30 7 43
30 8 48
30 9 17
30 10 4
30 11 14
30 12 53
30 13 31
30 14 42
30 15 10
30 16 19
30 17 12
30 18 61
30 19 51
30 20 24
30 21 30
30 22 18
30 23 46
30 24 9
30 25 44
30 26 6
30 27 43
30 28 34
30 29 19
31 0 36
31 1 14
31 2 19
31 3 35
31 4 19
31 5 56
31 6 15
31 7 33
31 8 61
31 9 55
31 10 23
31 11 52
31 12 23
31 13 28
31 14 40
31 15 12
31 16 56
31 17 26
31 18 29
31 19 48
31 20 43
31 21 8
31 22 18
31 23 49
31 24 48
31 25 51
31 26 47
31 27 57
31 28 58
31 29 52
31 30 20
32 0 38
32 1 23
32 2 10
32 3 25
32 4 3
32 5 7
32 6 51
32 7 17
32 8 32
32 9 49
32 10 33
32 11 21
32 12 34
32 13 33
32 14 26
32 15 46
32 16 59
32 17 34
32 18 43
32 19 6
32 20 35
32 21 12
32 22 48
32 23 51
32 24 23
32 25 20
32 26 62
32 27 44
32 28 33
32 29 6
32 30 5
32 31 22
33 0 5
33 1 58
33 2 60
33 3 44
33 4 37
33 5 55
33 6 41
33 7 54
33 8 12
33 9 56
33 10 10
33 11 58
33 12 16
33 13 33
33 14 41
33 15 28
33 16 13
33 17 14
33 18 44
33 19 44
33 20 60
33 21 17
33 22 41
33 23 14
33 24 48
33 25 50
33 26 6
33 27 46
33 28 3
33 29 40
33 30 43
33 31 54
33 32 53
34 0 60
34 1 44
34 2 16
34 3 30
34 4 46
34 5 23
34 6 37
34 7 11
34 8 46
34 9 32
34 10 4
34 11 61
34 12 30
34 13 24
34 14 11
34 15 12
34 16 16
34 17 32
34 18 45
34 19 60
34 20 20
34 21 60
34 22 38
34 23 6
34 24 48
34 25 27
34 26 43
34 27 53
34 28 47
34 29 57
34 30 47
34 31 36
34 32 57
34 33 7
35 0 35
35 1 16
35 2 22
35 3 32
35 4 24
35 5 32
35 6 32
35 7 7
35 8 18
35 9 26
35 10 39
35 11 60
35 12 31
35 13 22
35 14 44
35 15 6
35 16 28
35 17 39
35 18 21
35 19 45
35 20 1
35 21 39
35 22 35
35 23 20
35 24 35
35 25 53
35 26 45
35 27 27
35 28 32
35 29 56
35 30 61
35 31 62
35 32 33
35 33 22
35 34 5
36 0 45
36 1 38
36 2 4
36 3 13
36 4 46
36 5 51
36 6 32
36 7 21
36 8 31
36 9 12
36 10 59
36 11 28
36 12 51
36 13 7
36 14 38
36 15 1
36 16 18
36 17 24
36 18 17
36 19 19
36 20 41
36 21 36
36 22 56
36 23 62
36 24 56
36 25 27
36 26 4
36 27 13
36 28 58
36 29 30
36 30 34
36 31 57
36 32 14
36 33 7
36 34 13
36 35 35
37 0 62
37 1 38
37 2 58
37 3 11
37 4 24
37 5 15
37 6 34
37 7 8
37 8 3
37 9 60
37 10 44
37 11 43
37 12 59
37 13 44
37 14 13
37 15 57
37 16 25
37 17 11
37 18 23
37 19 18
37 20 33
37 21 29
37 22 23
37 23 24
37 24 40
37 25 19
37 26 34
37 27 37
37 28 28
37 29 13
37 30 15
37 31 14
37 32 51
37 33 24
37 34 40
37 35 58
37 36 48
38 0 54
38 1 35
38 2 17
38 3 34
38 4 14
38 5 24
38 6 31
38 7 24
38 8 56
38 9 18
38 10 13
38 11 8
38 12 3
38 13 44
38 14 29
38 15 36
38 16 23
38 17 45
38 18 16
38 19 41
38 20 21
38 21 29
38 22 37
38 23 31
38 24 46
38 25 62
38 26 41
38 27 5
38 28 35
38 29 27
38 30 40
38 31 7
38 32 38
38 33 51
38 34 18
38 35 9
38 36 10
38 37 19
39 0 16
39 1 14
39 2 62
39 3 41
39 4 54
39 5 34
39 6 12
39 7 58
39 8 45
39 9 53
39 10 43
39 11 14
39 12 25
39 13 45
39 14 32
39 15 24
39 16 9
39 17 41
39 18 8
39 19 20
39 20 17
39 21 60
39 22 29
39 23 27
39 24 38
39 25 46
39 26 17
39 27 3
39 28 29
39 29 13
39 30 6
39 31 55
39 32 38
39 33 37
39 34 2
39 35 16
39 36 29
39 37 3
39 38 59
40 0 11
40 1 31
40 2 21
40 3 49
40 4 38
40 5 20
40 6 26
40 7 20
40 8 56
40 9 18
40 10 1
40 11 22
40 12 39
40 13 21
40 14 42
40 15 12
40 16 42
40 17 29
40 18 24
40 19 2
40 20 23
40 21 2
40 22 11
40 23 28
40 24 47
40 25 1
40 26 39
40 27 12
40 28 23
40 29 35
40 30 14
40 31 60
40 32 13
40 33 37
40 34 37
40 35 55
40 36 53
40 37 31
40 38 42
40 39 54
41 0 39
41 1 56
41 2 55
41 3 1
41 4 25
41 5 11
41 6 54
41 7 45
41 8 34
41 9 9
41 10 39
41 11 27
41 12 61
41 13 13
41 14 5
41 15 49
41 16 25
41 17 48
41 18 1
41 19 48
41 20 6
41 21 41
41 22 25
41 23 19
41 24 61
41 25 9
41 26 25
41 27 8
41 28 40
41 29 24
41 30 17
41 31 58
41 32 46
41 33 44
41 34 28
41 35 22
41 36 51
41 37 2
41 38 11
41 39 59
41 40 28
42 0 1
42 1 35
42 2 26
42 3 32
42 4 13
42 5 5
42 6 50
42 7 35
42 8 3
42 9 31
42 10 14
42 11 60
42 12 19
42 13 13
42 14 29
42 15 10
42 16 42
42 17 17
42 18 32
42 19 62
42 20 28
42 21 26
42 22 58
42 23 32
42 24 23
42 25 11
42 26 20
42 27 8
42 28 12
42 29 48
42 30 44
42 31 13
42 32 49
42 33 14
42 34 24
42 35 40
42 36 17
42 37 1
42 38 28
42 39 56
42 40 59
42 41 27
43 0 14
43 1 28
43 2 4
43 3 1
43 4 22
43 5 39
43 6 10
43 7 56
43 8 5
43 9 41
43 10 15
43 11 12
43 12 62
43 13 50
43 14 26
43 15 29
43 16 34
43 17 21
43 18 3
43 19 58
43 20 49
43 21 40
43 22 40
43 23 8
43 24 12
43 25 41
43 26 44
43 27 58
43 28 50
43 29 27
43 30 32
43 31 22
43 32 40
43 33 25
43 34 35
43 35 36
43 36 24
43 37 5
43 38 62
43 39 50
43 40 48
43 41 49
43 42 20
44 0 13
44 1 62
44 2 42
44 3 23
44 4 3
44 5 27
44 6 38
44 7 61
44 8 31
44 9 59
44 10 11
44 11 14
44 12 55
44 13 12
44 14 58
44 15 57
44 16 36
44 17 17
44 18 5
44 19 47
44 20 26
44 21 39
44 22 45
44 23 35
44 24 29
44 25 29
44 26 30
44 27 4
44 28 47
44 29 36
44 30 22
44 31 27
44 32 2
44 33 38
44 34 53
44 35 48
44 36 42
44 37 7
44 38 58
44 39 38
44 40 26
44 41 2
44 42 13
44 43 42
45 0 40
45 1 17
45 2 27
45 3 26
45 4 1
45 5 31
45 6 16
45 7 43
45 8 62
45 9 37
45 10 50
45 11 58
45 12 42
45 13 5
45 14 39
45 15 46
45 16 27
45 17 35
45 18 46
45 19 27
45 20 49
45 21 15
45 22 15
45 23 7
45 24 30
45 25 34
45 26 31
45 27 37
45 28 22
45 29 55
45 30 51
45 31 40
45 32 40
45 33 54
45 34 21
45 35 57
45 36 1
45 37 31
45 38 19
45 39 22
45 40 14
45 41 20
45 42 6
45 43 45
45 44 8
46 0 15
46 1 43
46 2 62
46 3 49
46 4 52
46 5 19
46 6 20
46 7 38
46 8 12
46 9 35
46 10 1
46 11 42
46 12 35
46 13 23
46 14 52
46 15 7
46 16 29
46 17 10
46 18 24
46 19 49
46 20 2
46 21 32
46 22 18
46 23 47
46 24 36
46 25 9
46 26 55
46 27 27
46 28 55
46 29 39
46 30 11
46 31 10
46 32 37
46 33 45
46 34 21
46 35 47
46 36 38
46 37 49
46 38 22
46 39 16
46 40 36
46 41 47
46 42 7
46 43 59
46 44 49
46 45 58
47 0 29
47 1 15
47 2 53
47 3 5
47 4 42
47 5 6
47 6 26
47 7 3
47 8 39
47 9 12
47 10 27
47 11 41
47 12 32
47 13 51
47 14 48
47 15 32
47 16 48
47 17 9
47 18 26
47 19 14
47 20 56
47 21 40
47 22 16
47 23 61
47 24 61
47 25 38
47 26 29
47 27 38
47 28 13
47 29 5
47 30 49
47 31 27
47 32 49
47 33 32
47 34 18
47 35 37
47 36 62
47 37 19
47 38 23
47 39 48
47 40 17
47 41 46
47 42 13
47 43 24
47 44 35
47 45 55
47 46 55
48 0 33
48 1 13
48 2 59
48 3 40
48 4 39
48 5 27
48 6 46
48 7 19
48 8 12
48 9 60
48 10 12
48 11 49
48 12 15
48 13 14
48 14 25
48 15 5
48 16 35
48 17 27
48 18 34
48 19 11
48 20 28
48 21 26
48 22 26
48 23 54
48 24 52
48 25 54
48 26 41
48 27 28
48 28 56
48 29 34
48 30 60
48 31 36
48 32 40
48 33 32
48 34 31
48 35 57
48 36 55
48 37 23
48 38 52
48 39 31
48 40 47
48 41 20
48 42 43
48 43 29
48 44 38
48 45 16
48 46 26
48 47 6
49 0 57
49 1 21
49 2 12
49 3 10
49 4 41
49 5 44
49 6 7
49 7 42
49 8 11
49 9 22
49 10 45
49 11 12
49 12 29
49 13 13
49 14 50
49 15 40
49 16 30
49 17 3
49 18 18
49 19 39
49 20 58
49 21 53
49 22 44
49 23 51
49 24 39
49 25 25
49 26 33
49 27 25
49 28 7
49 29 39
49 30 15
49 31 18
49 32 35
49 33 47
49 34 15
49 35 5
49 36 1
49 37 25
49 38 26
49 39 15
49 40 8
49 41 1
49 42 41
49 43 59
49 44 31
49 45 27
49 46 5
49 47 26
49 48 58
50 0 30
50 1 58
50 2 56
50 3 19
50 4 46
50 5 44
50 6 31
50 7 53
50 8 59
50 9 23
50 10 33
50 11 4
50 12 55
50 13 14
50 14 6
50 15 36
50 16 21
50 17 47
50 18 8
50 19 38
50 20 44
50 21 10
50 22 52
50 23 53
50 24 33
50 25 41
50 26 51
50 27 6
50 28 26
50 29 55
50 30 48
50 31 41
50 32 57
50 33 43
50 34 40
50 35 35
50 36 41
50 37 18
50 38 4
50 39 9
50 40 6
50 41 40
50 42 50
50 43 17
50 44 53
50 45 24
50 46 5
50 47 37
50 48 6
50 49 50
51 0 45
51 1 25
51 2 41
51 3 32
51 4 32
51 5 61
51 6 59
51 7 2
51 8 26
51 9 38
51 10 41
51 11 21
51 12 8
51 13 37
51 14 52
51 15 61
51 16 39
51 17 57
51 18 2
51 19 30
51 20 24
51 21 25
51 22 22
51 23 6
51 24 18
51 25 31
51 26 41
51 27 2
51 28 50
51 29 17
51 30 31
51 31 52
51 32 43
51 33 45
51 34 6
51 35 33
51 36 13
51 37 3
51 38 51
51 39 38
51 40 60
51 41 9
51 42 57
51 43 3
51 44 33
51 45 33
51 46 11
51 47 59
51 48 28
51 49 45
51 50 8
52 0 31
52 1 43
52 2 12
52 3 45
52 4 19
52 5 10
52 6 5
52 7 48
52 8 13
52 9 2
52 10 53
52 11 29
52 12 18
52 13 12
52 14 52
52 15 42
52 16 44
52 17 43
52 18 5
52 19 6
52 20 22
52 21 22
52 22 6
52 23 21
52 24 41
52 25 39
52 26 38
52 27 22
52 28 59
52 29 37
52 30 62
52 31 1
52 32 14
52 33 36
52 34 24
52 35 43
52 36 15
52 37 44
52 38 22
52 39 1
52 40 19
52 41 37
52 42 47
52 43 27
52 44 6
52 45 49
52 46 26
52 47 59
52 48 27
52 49 42
52 50 8
52 51 18
53 0 52
53 1 5
53 2 43
53 3 28
53 4 26
53 5 49
53 6 52
53 7 20
53 8 10
53 9 30
53 10 61
53 11 45
53 12 45
53 13 6
53 14 37
53 15 16
53 16 46
53 17 26
53 18 18
53 19 37
53 20 35
53 21 35
53 22 2
53 23 21
53 24 16
53 25 31
53 26 7
53 27 23
53 28 37
53 29 47
53 30 47
53 31 24
53 32 52
53 33 22
53 34 32
53 35 11
53 36 42
53 37 62
53 38 42
53 39 32
53 40 61
53 41 29
53 42 39
53 43 10
53 44 53
53 45 44
53 46 46
53 47 59
53 48 7
53 49 1
53 50 61
53 51 11
53 52 34
54 0 13
54 1 55
54 2 42
54 3 18
54 4 48
54 5 6
54 6 21
54 7 7
54 8 36
54 9 39
54 10 62
54 11 48
54 12 8
54 13 1
54 14 55
54 15 24
54 16 3
54 17 33
54 18 61
54 19 44
54 20 54
54 21 12
54 22 11
54 23 42
54 24 25
54 25 34
54 26 57
54 27 35
54 28 25
54 29 10
54 30 54
54 31 48
54 32 62
54 33 19
54 34 34
54 35 51
54 36 38
54 37 35
54 38 11
54 39 26
54 40 43
54 41 60
54 42 18
54 43 21
54 44 4
54 45 6
54 46 27
54 47 45
54 48 25
54 49 18
54 50 24
54 51 60
54 52 4
54 53 44
55 0 38
55 1 8
55 2 41
55 3 12
55 4 56
55 5 55
55 6 48
55 7 46
55 8 15
55 9 11
55 10 46
55 11 30
55 12 40
55 13 9
55 14 28
55 15 18
55 16 16
55 17 62
55 18 48
55 19 12
55 20 5
55 21 61
55 22 41
55 23 37
55 24 11
55 25 34
55 26 25
55 27 53
55 28 61
55 29 17
55 30 26
55 31 35
55 32 22
55 33 26
55 34 32
55 35 41
55 36 16
55 37 50
55 38 41
55 39 22
55 40 28
55 41 41
55 42 31
55 43 26
55 44 20
55 45 41
55 46 24
55 47 9
55 48 58
55 49 60
55 50 30
55 51 19
55 52 50
55 53 26
55 54 11
56 0 50
56 1 62
56 2 57
56 3 8
56 4 43
56 5 46
56 6 37
56 7 25
56 8 61
56 9 17
56 10 42
56 11 36
56 12 26
56 13 3
56 14 42
56 15 54
56 16 56
56 17 8
56 18 39
56 19 43
56 20 24
56 21 40
56 22 29
56 23 3
56 24 38
56 25 42
56 26 35
56 27 38
56 28 37
56 29 39
56 30 14
56 31 47
56 32 6
56 33 22
56 34 44
56 35 36
56 36 20
56 37 17
56 38 52
56 39 38
56 40 38
56 41 24
56 42 24
56 43 3
56 44 55
56 45 2
56 46 56
56 47 37
56 48 1
56 49 34
56 50 32
56 51 6
56 52 34
56 53 21
56 54 58
56 55 41
57 0 22
57 1 61
57 2 41
57 3 4
57 4 62
57 5 26
57 6 18
57 7 26
57 8 18
57 9 19
57 10 3
57 11 37
57 12 54
57 13 60
57 14 23
57 15 45
57 16 61
57 17 47
57 18 60
57 19 50
57 20 59
57 21 44
57 22 33
57 23 28
57 24 42
57 25 36
57 26 19
57 27 56
57 28 27
57 29 56
57 30 7
57 31 11
57 32 43
57 33 32
57 34 24
57 35 57
57 36 48
57 37 51
57 38 26
57 39 6
57 40 23
57 41 34
57 42 57
57 43 59
57 44 41
57 45 58
57 46 39
57 47 38
57 48 9
57 49 38
57 50 21
57 51 23
57 52 36
57 53 20
57 54 45
57 55 26
57 56 43
58 0 46
58 1 6
58 2 44
58 3 28
58 4 38
58 5 24
58 6 11
58 7 15
58 8 6
58 9 34
58 10 26
58 11 56
58 12 13
58 13 50
58 14 39
58 15 55
58 16 26
58 17 41
58 18 20
58 19 38
58 20 7
58 21 35
58 22 23
58 23 6
58 24 21
58 25 21
58 26 60
58 27 14
58 28 58
58 29 23
58 30 61
58 31 15
58 32 13
58 33 36
58 34 36
58 35 30
58 36 33
58 37 59
58 38 60
58 39 18
58 40 43
58 41 12
58 42 2
58 43 47
58 44 50
58 45 39
58 46 54
58 47 31
58 48 60
58 49 30
58 50 27
58 51 56
58 52 14
58 53 13
58 54 17
58 55 22
58 56 34
58 57 25
59 0 36
59 1 31
59 2 28
59 3 34
59 4 7
59 5 26
59 6 55
59 7 40
59 8 5
59 9 22
59 10 36
59 11 20
59 12 37
59 13 29
59 14 33
59 15 13
59 16 31
59 17 32
59 18 43
59 19 32
59 20 40
59 21 38
59 22 59
59 23 2
59 24 60
59 25 26
59 26 55
59 27 14
59 28 57
59 29 31
59 30 4
59 31 60
59 32 58
59 33 35
59 34 38
59 35 5
59 36 17
59 37 44
59 38 27
59 39 51
59 40 19
59 41 25
59 42 34
59 43 56
59 44 56
59 45 13
59 46 4
59 47 47
59 48 49
59 49 47
59 50 50
59 51 7
59 52 52
59 53 46
59 54 55
59 55 56
59 56 41
59 57 19
59 58 35
60 0 26
60 1 8
60 2 44
60 3 61
60 4 5
60 5 34
60 6 47
60 7 3
60 8 4
60 9 31
60 10 40
60 11 15
60 12 54
60 13 55
60 14 62
60 15 7
60 16 32
60 17 33
60 18 16
60 19 1
60 20 55
60 21 15
60 22 60
60 23 61
60 24 38
60 25 23
60 26 13
60 27 7
60 28 10
60 29 18
60 30 35
60 31 39
60 32 14
60 33 7
60 34 14
60 35 41
60 36 55
60 37 49
60 38 7
60 39 20
60 40 26
60 41 24
60 42 10
60 43 32
60 44 21
60 45 2
60 46 4
60 47 55
60 48 57
60 49 59
60 50 18
60 51 27
60 52 62
60 53 30
60 54 5
60 55 2
60 56 17
60 57 20
60 58 33
60 59 45
61 0 55
61 1 49
61 2 27
61 3 28
61 4 22
61 5 24
61 6 61
61 7 52
61 8 12
61 9 53
61 10 54
61 11 60
61 12 24
61 13 11
61 14 18
61 15 21
61 16 62
61 17 38
61 18 39
61 19 27
61 20 21
61 21 31
61 22 23
61 23 44
61 24 27
61 25 36
61 26 62
61 27 43
61 28 60
61 29 50
61 30 6
61 31 44
61 32 46
61 33 11
61 34 5
61 35 21
61 36 13
61 37 54
61 38 5
61 39 36
61 40 61
61 41 54
61 42 62
61 43 31
61 44 5
61 45 45
61 46 36
61 47 36
61 48 29
61 49 6
61 50 21
61 51 21
61 52 62
61 53 29
61 54 32
61 55 36
61 56 57
61 57 59
61 58 10
61 59 46
61 60 43
62 0 12
62 1 34
62 2 58
62 3 27
62 4 40
62 5 2
62 6 39
62 7 29
62 8 57
62 9 20
62 10 21
62 11 58
62 12 53
62 13 45
62 14 26
62 15 2
62 16 36
62 17 43
62 18 5
62 19 43
62 20 40
62 21 1
62 22 11
62 23 42
62 24 62
62 25 12
62 26 15
62 27 15
62 28 29
62 29 2
62 30 59
62 31 8
62 32 60
62 33 26
62 34 9
62 35 16
62 36 38
62 37 48
62 38 41
62 39 38
62 40 19
62 41 47
62 42 60
62 43 60
62 44 49
62 45 9
62 46 18
62 47 42
62 48 61
62 49 57
62 50 35
62 51 30
62 52 10
62 53 8
62 54 39
62 55 12
62 56 16
62 57 55
62 58 16
62 59 39
62 60 29
62 61 39
63 0 12
63 1 7
63 2 55
63 3 38
63 4 4
63 5 43
63 6 42
63 7 12
63 8 56
63 9 28
63 10 19
63 11 11
63 12 51
63 13 51
63 14 39
63 15 38
63 16 49
63 17 58
63 18 58
63 19 43
63 20 45
63 21 6
63 22 15
63 23 26
63 24 25
63 25 61
63 26 24
63 27 39
63 28 44
63 29 22
63 30 50
63 31 5
63 32 26
63 33 17
63 34 58
63 35 61
63 36 23
63 37 54
63 38 46
63 39 12
63 40 56
63 41 41
63 42 43
63 43 44
63 44 44
63 45 29
63 46 22
63 47 25
63 48 41
63 49 44
63 50 11
63 51 6
63 52 15
63 53 41
63 54 18
63 55 21
63 56 22
63 57 36
63 58 36
63 59 31
63 60 10
63 61 19
63 62 53
64 0 10
64 1 43
64 2 27
64 3 25
64 4 49
64 5 48
64 6 8
64 7 58
64 8 12
64 9 19
64 10 18
64 11 50
64 12 18
64 13 58
64 14 47
64 15 62
64 16 11
64 17 51
64 18 28
64 19 16
64 20 31
64 21 51
64 22 52
64 23 31
64 24 40
64 25 32
64 26 13
64 27 2
64 28 12
64 29 43
64 30 27
64 31 33
64 32 50
64 33 17
64 34 16
64 35 53
64 36 19
64 37 61
64 38 31
64 39 48
64 40 40
64 41 61
64 42 22
64 43 32
64 44 14
64 45 23
64 46 56
64 47 40
64 48 32
64 49 20
64 50 40
64 51 37
64 52 60
64 53 14
64 54 15
64 55 57
64 56 54
64 57 4
64 58 17
64 59 5
64 60 32
64 61 59
64 62 19
64 63 24
